certificates/rado_a18_c16_N59.cnf
c Rad2 upper bound instance: x1 + 18*x2 - x3 = 16, interval [1,59]
p cnf 59 240
1 3 0
-1 -3 0
1 2 21 0
-1 -2 -21 0
1 3 39 0
-1 -3 -39 0
1 4 57 0
-1 -4 -57 0
1 2 4 0
-1 -2 -4 0
2 22 0
-2 -22 0
2 3 40 0
-2 -3 -40 0
2 4 58 0
-2 -4 -58 0
1 3 5 0
-1 -3 -5 0
2 3 23 0
-2 -3 -23 0
3 41 0
-3 -41 0
3 4 59 0
-3 -4 -59 0
1 4 6 0
-1 -4 -6 0
2 4 24 0
-2 -4 -24 0
3 4 42 0
-3 -4 -42 0
1 5 7 0
-1 -5 -7 0
2 5 25 0
-2 -5 -25 0
3 5 43 0
-3 -5 -43 0
1 6 8 0
-1 -6 -8 0
2 6 26 0
-2 -6 -26 0
3 6 44 0
-3 -6 -44 0
1 7 9 0
-1 -7 -9 0
2 7 27 0
-2 -7 -27 0
3 7 45 0
-3 -7 -45 0
1 8 10 0
-1 -8 -10 0
2 8 28 0
-2 -8 -28 0
3 8 46 0
-3 -8 -46 0
1 9 11 0
-1 -9 -11 0
2 9 29 0
-2 -9 -29 0
3 9 47 0
-3 -9 -47 0
1 10 12 0
-1 -10 -12 0
2 10 30 0
-2 -10 -30 0
3 10 48 0
-3 -10 -48 0
1 11 13 0
-1 -11 -13 0
2 11 31 0
-2 -11 -31 0
3 11 49 0
-3 -11 -49 0
1 12 14 0
-1 -12 -14 0
2 12 32 0
-2 -12 -32 0
3 12 50 0
-3 -12 -50 0
1 13 15 0
-1 -13 -15 0
2 13 33 0
-2 -13 -33 0
3 13 51 0
-3 -13 -51 0
1 14 16 0
-1 -14 -16 0
2 14 34 0
-2 -14 -34 0
3 14 52 0
-3 -14 -52 0
1 15 17 0
-1 -15 -17 0
2 15 35 0
-2 -15 -35 0
3 15 53 0
-3 -15 -53 0
1 16 18 0
-1 -16 -18 0
2 16 36 0
-2 -16 -36 0
3 16 54 0
-3 -16 -54 0
1 17 19 0
-1 -17 -19 0
2 17 37 0
-2 -17 -37 0
3 17 55 0
-3 -17 -55 0
1 18 20 0
-1 -18 -20 0
2 18 38 0
-2 -18 -38 0
3 18 56 0
-3 -18 -56 0
1 19 21 0
-1 -19 -21 0
2 19 39 0
-2 -19 -39 0
3 19 57 0
-3 -19 -57 0
1 20 22 0
-1 -20 -22 0
2 20 40 0
-2 -20 -40 0
3 20 58 0
-3 -20 -58 0
1 21 23 0
-1 -21 -23 0
2 21 41 0
-2 -21 -41 0
3 21 59 0
-3 -21 -59 0
1 22 24 0
-1 -22 -24 0
2 22 42 0
-2 -22 -42 0
1 23 25 0
-1 -23 -25 0
2 23 43 0
-2 -23 -43 0
1 24 26 0
-1 -24 -26 0
2 24 44 0
-2 -24 -44 0
1 25 27 0
-1 -25 -27 0
2 25 45 0
-2 -25 -45 0
1 26 28 0
-1 -26 -28 0
2 26 46 0
-2 -26 -46 0
1 27 29 0
-1 -27 -29 0
2 27 47 0
-2 -27 -47 0
1 28 30 0
-1 -28 -30 0
2 28 48 0
-2 -28 -48 0
1 29 31 0
-1 -29 -31 0
2 29 49 0
-2 -29 -49 0
1 30 32 0
-1 -30 -32 0
2 30 50 0
-2 -30 -50 0
1 31 33 0
-1 -31 -33 0
2 31 51 0
-2 -31 -51 0
1 32 34 0
-1 -32 -34 0
2 32 52 0
-2 -32 -52 0
1 33 35 0
-1 -33 -35 0
2 33 53 0
-2 -33 -53 0
1 34 36 0
-1 -34 -36 0
2 34 54 0
-2 -34 -54 0
1 35 37 0
-1 -35 -37 0
2 35 55 0
-2 -35 -55 0
1 36 38 0
-1 -36 -38 0
2 36 56 0
-2 -36 -56 0
1 37 39 0
-1 -37 -39 0
2 37 57 0
-2 -37 -57 0
1 38 40 0
-1 -38 -40 0
2 38 58 0
-2 -38 -58 0
1 39 41 0
-1 -39 -41 0
2 39 59 0
-2 -39 -59 0
1 40 42 0
-1 -40 -42 0
1 41 43 0
-1 -41 -43 0
1 42 44 0
-1 -42 -44 0
1 43 45 0
-1 -43 -45 0
1 44 46 0
-1 -44 -46 0
1 45 47 0
-1 -45 -47 0
1 46 48 0
-1 -46 -48 0
1 47 49 0
-1 -47 -49 0
1 48 50 0
-1 -48 -50 0
1 49 51 0
-1 -49 -51 0
1 50 52 0
-1 -50 -52 0
1 51 53 0
-1 -51 -53 0
1 52 54 0
-1 -52 -54 0
1 53 55 0
-1 -53 -55 0
1 54 56 0
-1 -54 -56 0
1 55 57 0
-1 -55 -57 0
1 56 58 0
-1 -56 -58 0
1 57 59 0
-1 -57 -59 0
