certificates/rado_a18_c16_N59.drat
-57 -59 0
d -57 -1 -59 0
19 21 57 0
-3 -59 0
-59 0
57 0
3 0
-1 0
-41 0
-19 0
43 0
39 0
21 0
17 0
-5 0
-55 0
7 0
53 0
-45 0
-15 0
47 0
13 0
-9 0
-51 0
11 0
49 0
0
